DIMENSION: 10
EDGE_WEIGHT_TYPE: EXPLICIT
EDGE_WEIGHT_FORMAT: FULL_MATRIX
EDGE_WEIGHT_SECTION:
32767 32767 19 32767 51 7 32767 32767 32767 89 
32767 32767 26 87 32767 32767 94 32767 52 95 
19 26 32767 74 44 61 32767 38 45 70 
32767 87 74 32767 32 21 3 29 64 77 
51 32767 44 32 32767 42 32767 32767 31 91 
7 32767 61 21 42 32767 42 25 8 23 
32767 94 32767 3 32767 42 32767 67 1 17 
32767 32767 38 29 32767 25 67 32767 22 32767 
32767 52 45 64 31 8 1 22 32767 32767 
89 95 70 77 91 23 17 32767 32767 32767 
EOF